p cnf 12 50 
1 10 -3 0
-8 4 -2 0
-5 -12 6 0
9 -8 -12 0
4 10 9 0
-10 9 4 0
-1 -6 -11 0
-11 6 -12 0
3 -12 6 0
-3 -12 5 0
7 -8 11 0
7 8 -1 0
4 5 11 0
1 -2 -11 0
8 9 6 0
7 3 1 0
5 -4 -2 0
-11 -1 3 0
-9 7 -10 0
12 5 -8 0
-1 3 -10 0
-6 7 1 0
5 -7 -3 0
7 9 -12 0
-4 7 5 0
3 -8 -5 0
12 11 -2 0
9 12 2 0
4 2 8 0
-3 8 -7 0
-12 7 -6 0
-8 -12 -9 0
5 6 8 0
7 -4 -8 0
-12 2 11 0
-8 3 5 0
-4 -7 -2 0
-8 -10 -2 0
6 -2 -5 0
-6 -4 -9 0
4 12 -2 0
5 2 -3 0
6 -8 12 0
3 -7 9 0
-6 -10 -11 0
-7 3 12 0
3 -9 1 0
-2 -3 10 0
-1 -8 4 0
-6 8 11 0
